\ This file has been generated by DOcplex
\ ENCODING=ISO-8859-1
\Problem name: random_problem.lp

Minimize
 obj: - x0 - 10 x1 + 6 x2 + 7 x3 - 10 x4 - 10 x5 - 10 x6 + 7 x7 + 3 x9 - 3 x10
      - 9 x11 - 5 x12 - 5 x13 + 5 x14 + 2 x15 - 8 x16 - 9 x17 - 5 x18 - x19
      - 2 x20 - 4 x21 + 8 x22 - 9 x23 - 3 x24 - 4 x25 + 7 x26 - 10 x27 + 5 x28
      - 3 x29 - 9 x30 - 3 x31 + 3 x32 + 7 x33 + 5 x34 + 3 x35 - 9 x36 - 4 x37
      + 8 x39 - 10 x40 - 3 x41 - x42 + 3 x43 - 6 x44 - 9 x45 + 2 x46 - 8 x47
      - 2 x48 + 7 x50 + 10 x51 + 3 x52 + 5 x53 - 4 x54 - 3 x55 - x56 + 7 x57
      - 6 x58 + [ - 8 x0*x10 + 8 x0*x13 + 6 x0*x16 - 14 x0*x22 + 20 x0*x24
      - 14 x0*x28 + 8 x0*x32 - 14 x0*x43 + 14 x0*x50 + 2 x0*x59 + 10 x1*x2
      + 18 x1*x5 - 18 x1*x21 - 12 x1*x23 + 10 x1*x26 + 2 x1*x28 + 20 x1*x30
      - 2 x1*x45 + 14 x1*x53 + 12 x1*x59 - 10 x2*x7 + 16 x2*x10 - 16 x2*x18
      - 20 x2*x35 + 6 x2*x39 - 2 x2*x41 + 18 x2*x45 - 12 x2*x48 + 2 x2*x54
      - 8 x3*x14 - 2 x3*x24 - 10 x3*x26 + 8 x3*x30 - 10 x3*x31 + 20 x3*x40
      - 4 x3*x49 + 18 x3*x50 + 4 x3*x51 - 16 x3*x52 - 10 x4*x5 + 18 x4*x6
      - 20 x4*x9 + 16 x4*x18 - 12 x4*x19 + 18 x4*x34 - 16 x4*x35 + 20 x4*x38
      + 4 x4*x48 + 8 x4*x52 + 20 x5*x6 + 12 x5*x9 + 12 x5*x21 + 10 x5*x24
      - 18 x5*x38 + 16 x5*x40 + 12 x5*x42 - 4 x5*x50 + 2 x6*x18 - 20 x6*x31
      + 6 x6*x40 - 2 x6*x41 - 4 x6*x43 - 16 x6*x49 + 6 x6*x54 - 14 x6*x56
      + 8 x7*x10 + 4 x7*x11 - 12 x7*x21 - 2 x7*x32 + 16 x7*x39 + 12 x7*x43
      + 12 x7*x49 + 8 x7*x51 - 2 x7*x56 + 8 x8*x9 + 4 x8*x18 - 4 x8*x24
      + 10 x8*x35 + 20 x8*x39 + 8 x8*x45 - 16 x8*x50 + 18 x8*x51 + 10 x8*x56
      - 6 x8*x58 - 14 x9*x24 - 20 x9*x25 + 6 x9*x26 + 2 x9*x38 + 8 x9*x39
      + 18 x9*x53 - 2 x9*x58 + 16 x10*x19 + 6 x10*x21 + 8 x10*x31 - 4 x10*x37
      - 10 x10*x44 - 12 x10*x46 - 12 x10*x52 - 2 x11*x17 - 6 x11*x20
      + 14 x11*x21 - 20 x11*x27 - 20 x11*x36 + 12 x11*x44 + 8 x11*x46
      + 14 x11*x49 + 18 x11*x59 - 14 x12*x19 - 18 x12*x26 - 8 x12*x37
      + 4 x12*x39 - 18 x12*x42 + 16 x12*x44 + 2 x12*x47 + 2 x12*x48 - 18 x12*x52
      - 6 x12*x53 + 10 x13*x16 - 18 x13*x20 - 16 x13*x22 + 6 x13*x23 + 6 x13*x30
      - 6 x13*x36 - 16 x13*x39 + 20 x13*x49 - 14 x13*x54 - 20 x14*x19
      + 18 x14*x27 + 14 x14*x29 + 2 x14*x31 - 4 x14*x41 - 10 x14*x44 + 6 x14*x50
      - 12 x14*x53 - 14 x14*x54 - 2 x15*x17 - 2 x15*x18 - 6 x15*x23 - 20 x15*x24
      + 2 x15*x32 - 8 x15*x33 + 8 x15*x37 + 18 x15*x38 - 12 x15*x43 - 2 x15*x49
      + 2 x16*x18 - 2 x16*x19 + 4 x16*x20 + 10 x16*x25 + 4 x16*x31 + 16 x16*x33
      + 14 x16*x42 - 4 x16*x57 + 14 x17*x22 + 14 x17*x27 + 16 x17*x35
      - 20 x17*x36 + 4 x17*x38 - 2 x17*x45 - 6 x17*x46 - 20 x17*x57 - 6 x18*x30
      - 6 x18*x34 - 10 x18*x35 + 16 x18*x57 + 18 x19*x31 - 12 x19*x32
      - 12 x19*x35 + 4 x19*x51 - 8 x19*x52 + 18 x20*x28 + 2 x20*x29 - 2 x20*x33
      - 2 x20*x34 + 4 x20*x42 - 2 x20*x55 + 18 x20*x58 - 20 x21*x31 - 12 x21*x33
      - 4 x21*x40 - 18 x21*x43 + 8 x21*x49 - 6 x22*x23 + 16 x22*x26 + 2 x22*x32
      + 14 x22*x33 + 20 x22*x43 + 10 x22*x57 - 14 x22*x59 + 14 x23*x25
      + 18 x23*x33 + 20 x23*x46 - 14 x23*x47 - 10 x23*x53 - 8 x23*x54
      - 20 x24*x31 + 10 x24*x36 + 6 x24*x48 - 18 x24*x57 + 8 x25*x27
      - 10 x25*x41 - 16 x25*x46 + 20 x25*x47 - 8 x25*x49 - 10 x25*x51
      + 20 x25*x58 + 8 x26*x29 - 4 x26*x34 - 20 x26*x37 + 8 x26*x44 - 6 x26*x45
      + 16 x27*x28 + 10 x27*x37 + 4 x27*x38 + 8 x27*x52 - 20 x27*x56 + 6 x27*x58
      + 10 x28*x29 - 20 x28*x30 - 20 x28*x31 + 4 x28*x36 + 20 x28*x56
      - 10 x28*x59 - 16 x29*x34 + 10 x29*x39 - 8 x29*x43 + 4 x29*x45
      - 16 x29*x49 - 16 x29*x57 + 8 x30*x38 + 10 x30*x41 + 16 x30*x55
      + 4 x30*x57 - 10 x30*x59 - 18 x31*x57 - 4 x32*x35 - 4 x32*x44 - 2 x32*x47
      + 2 x32*x51 + 10 x32*x53 - 14 x33*x34 + 16 x33*x43 + 18 x33*x46
      + 12 x33*x50 + 20 x34*x35 - 12 x34*x45 - 16 x34*x52 + 14 x34*x56
      + 4 x35*x40 + 8 x35*x58 - 20 x36*x43 - 4 x36*x44 - 4 x36*x48 - 18 x36*x54
      - 12 x36*x59 + 4 x37*x38 + 12 x37*x40 - 2 x37*x47 + 4 x37*x54 + 6 x37*x55
      - 18 x38*x52 - 6 x38*x53 + 18 x39*x48 - 4 x39*x53 + 20 x39*x55 + 2 x40*x44
      + 8 x40*x47 - 12 x40*x48 - 16 x40*x59 + 10 x41*x42 - 4 x41*x43
      + 14 x41*x51 + 8 x41*x52 + 20 x41*x55 - 18 x42*x44 - 20 x42*x46
      + 6 x42*x55 - 10 x42*x56 + 4 x42*x58 + 14 x44*x48 + 12 x45*x47
      + 16 x45*x54 + 14 x45*x57 - 2 x46*x53 + 6 x46*x55 - 6 x46*x58 + 20 x47*x52
      + 12 x47*x55 + 14 x47*x58 - 20 x48*x51 + 10 x48*x54 + 6 x49*x50
      + 2 x50*x51 + 20 x50*x56 - 12 x50*x59 + 20 x51*x56 + 12 x53*x54
      + 20 x55*x57 - 16 x55*x59 + 14 x56*x58 ]/2
Subject To
 c0: x0 - x1 - x7 - 2 x12 - 2 x13 - 2 x19 + 2 x22 - 2 x26 + x27 + 2 x43 = 1
 c1: 2 x2 + x5 + x23 + x25 + 2 x32 - 2 x33 + x47 - 2 x51 + x58 + x59 = 1
 c2: - x1 - 2 x2 - 2 x12 - 2 x20 + x28 - 2 x39 - x45 - x47 - x54 - 2 x57 = 1
 c3: 2 x0 + 2 x5 - 2 x9 + 2 x19 - 2 x32 + x35 + 2 x46 - x51 - x57 + x58 = -1
 c4: - x0 - 2 x1 + 2 x4 - x9 - x10 + x42 - 2 x46 + x48 + x49 - 2 x51 = 0
 c5: - 2 x6 + 2 x14 + x22 - 2 x25 + x30 - 2 x31 - 2 x44 - 2 x45 - 2 x53 - 2 x54
      = 1
 c6: - 2 x0 - x8 - 2 x9 - 2 x14 + x24 - x29 - x37 + 2 x41 - 2 x49 - 2 x51 = 0
 c7: x2 + 2 x5 - 2 x8 + x9 - x12 + 2 x25 - x33 - x45 - 2 x49 + x53 = -1
 c8: x2 + x5 + x6 + x11 - 2 x12 - 2 x27 - x35 + 2 x37 + x38 + x44 = -1
 c9: x16 - x23 + 2 x28 - 2 x32 - x36 + x39 - x44 - 2 x49 + x56 - x58 = 0
 c10: - x2 + x17 - x20 + 2 x26 - 2 x27 + x28 + 2 x29 - 2 x31 + x38 + x44 = -2
 c11: 2 x2 + 2 x5 + x6 - x9 + 2 x13 - x17 - x18 - x23 - 2 x40 + x54 = -2

Bounds
 0 <= x0 <= 1
 0 <= x1 <= 1
 0 <= x2 <= 1
 0 <= x3 <= 1
 0 <= x4 <= 1
 0 <= x5 <= 1
 0 <= x6 <= 1
 0 <= x7 <= 1
 0 <= x8 <= 1
 0 <= x9 <= 1
 0 <= x10 <= 1
 0 <= x11 <= 1
 0 <= x12 <= 1
 0 <= x13 <= 1
 0 <= x14 <= 1
 0 <= x15 <= 1
 0 <= x16 <= 1
 0 <= x17 <= 1
 0 <= x18 <= 1
 0 <= x19 <= 1
 0 <= x20 <= 1
 0 <= x21 <= 1
 0 <= x22 <= 1
 0 <= x23 <= 1
 0 <= x24 <= 1
 0 <= x25 <= 1
 0 <= x26 <= 1
 0 <= x27 <= 1
 0 <= x28 <= 1
 0 <= x29 <= 1
 0 <= x30 <= 1
 0 <= x31 <= 1
 0 <= x32 <= 1
 0 <= x33 <= 1
 0 <= x34 <= 1
 0 <= x35 <= 1
 0 <= x36 <= 1
 0 <= x37 <= 1
 0 <= x38 <= 1
 0 <= x39 <= 1
 0 <= x40 <= 1
 0 <= x41 <= 1
 0 <= x42 <= 1
 0 <= x43 <= 1
 0 <= x44 <= 1
 0 <= x45 <= 1
 0 <= x46 <= 1
 0 <= x47 <= 1
 0 <= x48 <= 1
 0 <= x49 <= 1
 0 <= x50 <= 1
 0 <= x51 <= 1
 0 <= x52 <= 1
 0 <= x53 <= 1
 0 <= x54 <= 1
 0 <= x55 <= 1
 0 <= x56 <= 1
 0 <= x57 <= 1
 0 <= x58 <= 1
 0 <= x59 <= 1

Binaries
 x0 x1 x2 x3 x4 x5 x6 x7 x8 x9 x10 x11 x12 x13 x14 x15 x16 x17 x18 x19 x20 x21
 x22 x23 x24 x25 x26 x27 x28 x29 x30 x31 x32 x33 x34 x35 x36 x37 x38 x39 x40 x41
 x42 x43 x44 x45 x46 x47 x48 x49 x50 x51 x52 x53 x54 x55 x56 x57 x58 x59
End
